1 1560 7
2 1393 7
4 1351 7
5 1329 7
18 1294 7
33 1280 7
144 1247 7



1 1549 7
2 1452 7
3 1383 7
5 1368 7
7 1304 7
12 1274 7
139 1263 7
367 1257 7
459 1248 7
740 1246 7



1 1502 7
2 1397 7
3 1367 7
4 1314 7
5 1297 7
8 1285 7
128 1284 7
171 1280 7
316 1257 7
925 1254 7



1 1608 7
2 1417 7
3 1390 7
4 1378 7
8 1356 7
12 1314 7
14 1313 7
54 1298 7
73 1293 7
83 1287 7
110 1281 7
702 1277 7
749 1261 7



1 1588 7
2 1376 7
6 1363 7
10 1347 7
12 1337 7
13 1332 7
14 1310 7
27 1291 7
51 1287 7
69 1276 7
295 1266 7
583 1265 7
589 1253 7
762 1242 7



